/*********************************************
 * OPL 20.1.0.0 Data
 * Author: utente
 * Creation Date: 15 nov 2022 at 16:53:25
 *********************************************/

 
  //insiemi e dati
 
puntiV = {"P1", "P2", "P3", "P4"};
magaz = {"M1", "M2", "M3"};


D = [100, 200, 150];

c = [[23, 10, 12, 20]
			[13, 15, 25, 15]
			[30, 21, 10, 16]];
			
F = [500, 300, 200, 400];
R = [100, 150, 200, 220];